136
0 1 110 69 76 23 34 86 3 100 
21 38 60 5 116 122 92 119 2 106 
80 82 54 59 99 49 125 67 48 24 
45 130 95 6 51 12 107 62 111 114 
44 13 65 14 87 127 132 40 20 15 
102 124 72 135 19 104 43 41 108 81 
66 29 118 53 47 74 50 57 32 25 
63 101 70 58 39 33 105 71 115 16 
77 64 90 52 31 120 129 37 131 133 
103 126 18 121 113 89 93 75 46 85 
128 134 22 96 17 83 42 68 94 98 
97 55 73 112 4 78 9 117 8 56 
26 28 7 91 61 10 27 84 88 35 
79 123 36 11 30 109 
